set tyres := Soft Medium Hard;
set laps := 1 2 3 4;
param time:
            1       2       3       4 =
    Soft    1.18    1.19    1.21    1.22
    Medium  1.19    1.18    1.20    1.21
    Hard    1.21    1.19    1.17    1.17;